benchmarks/crosswords/mzn/crossword3_26.ozn
output ([(((("\n"++problem_name)++"\n")++"L:")++show(L))++"\n"]++[if problem[i,j]==0 then "*" else show(letters[fix(L[problem[i,j]])]) endif++if j==cols then "\n" else "" endif | i in 1..rows, j in 1..cols, ])++["\n"];
int: rows = 19;
int: cols = 19;
array [1..rows,1..cols] of int: problem = [|1,2,3,4,5,0,6,7,8,9,0,10,11,12,13,0,14,15,16|17,18,19,20,21,0,22,23,24,25,0,26,27,28,29,0,30,31,32|33,34,35,36,37,38,39,40,41,42,43,44,45,46,47,0,48,49,50|51,52,53,0,54,55,56,57,0,58,59,60,61,0,0,62,63,64,65|0,0,0,0,66,67,68,0,69,70,71,72,0,73,74,75,0,0,0|76,77,78,79,80,81,0,82,83,84,85,0,86,87,88,89,90,91,92|93,94,95,96,97,0,98,99,100,101,0,102,103,104,105,106,107,108,109|110,111,112,113,0,114,115,116,0,0,117,118,119,0,0,120,121,122,123|124,125,126,127,128,129,130,0,131,132,133,134,0,135,136,137,138,139,140|0,0,0,141,142,143,144,0,145,146,147,0,148,149,150,151,0,0,0|152,153,154,155,156,157,0,158,159,160,161,0,162,163,164,165,166,167,168|169,170,171,172,0,0,173,174,175,0,0,176,177,178,0,179,180,181,182|183,184,185,186,187,188,189,190,0,191,192,193,194,0,195,196,197,198,199|200,201,202,203,204,205,206,0,207,208,209,210,0,211,212,213,214,215,216|0,0,0,217,218,219,0,220,221,222,223,0,224,225,226,0,0,0,0|227,228,229,230,0,0,231,232,233,234,0,235,236,237,238,0,239,240,241|242,243,244,0,245,246,247,248,249,250,251,252,253,254,255,256,257,258,259|260,261,262,0,263,264,265,266,0,267,268,269,270,0,271,272,273,274,275|276,277,278,0,279,280,281,282,0,283,284,285,286,0,287,288,289,290,291|];
int: num_letters = 26;
array [1..num_letters] of string: letters = ["a","b","c","d","e","f","g","h","i","j","k","l","m","n","o","p","q","r","s","t","u","v","w","x","y","z"];
int: N = 291;
array [0..N] of int: L;
string: problem_name = "19.07, 19 x 19";
