benchmarks/crosswords/mzn/crossword3_26.res
REGULAR
REGULAR
REGULAR
REGULAR
REGULAR
REGULAR
REGULAR
REGULAR
REGULAR
REGULAR
REGULAR
REGULAR
REGULAR
REGULAR
REGULAR
REGULAR
REGULAR
REGULAR
REGULAR
REGULAR
REGULAR
REGULAR
REGULAR
REGULAR
REGULAR
REGULAR
REGULAR
REGULAR
REGULAR
REGULAR
REGULAR
REGULAR
REGULAR
REGULAR
REGULAR
REGULAR
REGULAR
REGULAR
REGULAR
REGULAR
REGULAR
REGULAR
REGULAR
REGULAR
REGULAR
REGULAR
REGULAR
REGULAR
REGULAR
REGULAR
REGULAR
REGULAR
REGULAR
REGULAR
REGULAR
REGULAR
REGULAR
REGULAR
REGULAR
REGULAR
REGULAR
REGULAR
REGULAR
REGULAR
REGULAR
REGULAR
REGULAR
REGULAR
REGULAR
REGULAR
REGULAR
REGULAR
REGULAR
REGULAR
REGULAR
REGULAR
REGULAR
REGULAR
REGULAR
REGULAR
REGULAR
REGULAR
REGULAR
REGULAR
REGULAR
REGULAR
REGULAR
REGULAR
REGULAR
REGULAR
REGULAR
REGULAR
REGULAR
REGULAR
REGULAR
REGULAR
REGULAR
REGULAR
REGULAR
REGULAR
REGULAR
REGULAR
REGULAR
REGULAR
REGULAR
REGULAR
REGULAR
REGULAR
REGULAR
REGULAR
REGULAR
REGULAR
REGULAR
REGULAR
REGULAR
REGULAR
REGULAR
REGULAR
REGULAR
REGULAR
REGULAR
REGULAR
REGULAR
REGULAR
REGULAR
REGULAR
REGULAR
REGULAR
REGULAR
REGULAR
REGULAR
REGULAR
REGULAR
REGULAR
L = array1d(0..291, [1, 4, 1, 13, 15, 14, 5, 5, 12, 11, 1, 19, 12, 5, 19, 19, 1, 5, 14, 5, 18, 9, 9, 12, 1, 3, 23, 5, 9, 22, 2, 2, 5, 3, 9, 8, 16, 18, 15, 13, 15, 16, 15, 18, 8, 20, 14, 1, 12, 1, 8, 1, 4, 1, 1, 18, 1, 3, 4, 9, 3, 1, 4, 1, 3, 19, 7, 1, 10, 5, 4, 1, 19, 1, 20, 5, 1, 4, 14, 21, 1, 11, 5, 3, 1, 6, 5, 14, 1, 8, 20, 5, 13, 19, 14, 9, 1, 7, 14, 8, 1, 8, 14, 15, 9, 19, 19, 9, 13, 15, 5, 9, 18, 5, 20, 5, 19, 2, 1, 4, 9, 13, 1, 20, 13, 18, 5, 20, 4, 9, 13, 5, 12, 1, 2, 8, 16, 12, 15, 4, 1, 14, 1, 4, 1, 13, 15, 3, 11, 19, 1, 2, 4, 5, 20, 1, 12, 5, 2, 1, 1, 19, 18, 1, 26, 1, 5, 12, 5, 1, 18, 1, 13, 2, 1, 3, 12, 1, 7, 20, 16, 5, 12, 8, 1, 8, 20, 8, 16, 5, 10, 5, 4, 1, 2, 5, 19, 1, 2, 1, 19, 8, 20, 18, 1, 5, 4, 5, 7, 1, 3, 15, 20, 5, 18, 1, 16, 15, 8, 18, 8, 16, 1, 3, 4, 9, 1, 1, 16, 1, 16, 19, 3, 1, 19, 5, 5, 8, 18, 19, 5, 12, 7, 1, 18, 3, 9, 18, 20, 14, 5, 3, 15, 16, 15, 18, 8, 20, 14, 1, 12, 5, 7, 1, 5, 18, 1, 18, 1, 12, 1, 1, 7, 5, 14, 15, 1, 8, 1, 13, 12, 5, 8, 16, 19, 1, 7, 14, 21, 10, 1, 3]);
----------

%%  runtime:       8.908 (8908.958 ms)
%%  solvetime:     0.119 (119.386 ms)
%%  solutions:     1
%%  variables:     25537
%%  propagators:   34290
%%  propagations:  267563
%%  nodes:         148
%%  failures:      10
%%  restarts:      0
%%  peak depth:    137

GECODE_TUPLESET_MEM
GECODE_TUPLESET_MEM
GECODE_TUPLESET_MEM
GECODE_TUPLESET_MEM
GECODE_TUPLESET_MEM
GECODE_TUPLESET_MEM
GECODE_TUPLESET_MEM
GECODE_TUPLESET_MEM
GECODE_TUPLESET_MEM
GECODE_TUPLESET_MEM
GECODE_TUPLESET_MEM
GECODE_TUPLESET_MEM
GECODE_TUPLESET_MEM
GECODE_TUPLESET_MEM
GECODE_TUPLESET_MEM
GECODE_TUPLESET_MEM
GECODE_TUPLESET_MEM
GECODE_TUPLESET_MEM
GECODE_TUPLESET_MEM
GECODE_TUPLESET_MEM
GECODE_TUPLESET_MEM
GECODE_TUPLESET_MEM
GECODE_TUPLESET_MEM
GECODE_TUPLESET_MEM
GECODE_TUPLESET_MEM
GECODE_TUPLESET_MEM
GECODE_TUPLESET_MEM
GECODE_TUPLESET_MEM
GECODE_TUPLESET_MEM
GECODE_TUPLESET_MEM
GECODE_TUPLESET_MEM
GECODE_TUPLESET_MEM
GECODE_TUPLESET_MEM
GECODE_TUPLESET_MEM
GECODE_TUPLESET_MEM
GECODE_TUPLESET_MEM
GECODE_TUPLESET_MEM
GECODE_TUPLESET_MEM
GECODE_TUPLESET_MEM
GECODE_TUPLESET_MEM
GECODE_TUPLESET_MEM
GECODE_TUPLESET_MEM
GECODE_TUPLESET_MEM
GECODE_TUPLESET_MEM
GECODE_TUPLESET_MEM
GECODE_TUPLESET_MEM
GECODE_TUPLESET_MEM
GECODE_TUPLESET_MEM
GECODE_TUPLESET_MEM
GECODE_TUPLESET_MEM
GECODE_TUPLESET_MEM
GECODE_TUPLESET_MEM
GECODE_TUPLESET_MEM
GECODE_TUPLESET_MEM
GECODE_TUPLESET_MEM
GECODE_TUPLESET_MEM
GECODE_TUPLESET_MEM
GECODE_TUPLESET_MEM
GECODE_TUPLESET_MEM
GECODE_TUPLESET_MEM
GECODE_TUPLESET_MEM
GECODE_TUPLESET_MEM
GECODE_TUPLESET_MEM
GECODE_TUPLESET_MEM
GECODE_TUPLESET_MEM
GECODE_TUPLESET_MEM
GECODE_TUPLESET_MEM
GECODE_TUPLESET_MEM
GECODE_TUPLESET_MEM
GECODE_TUPLESET_MEM
GECODE_TUPLESET_MEM
GECODE_TUPLESET_MEM
GECODE_TUPLESET_MEM
GECODE_TUPLESET_MEM
GECODE_TUPLESET_MEM
GECODE_TUPLESET_MEM
GECODE_TUPLESET_MEM
GECODE_TUPLESET_MEM
GECODE_TUPLESET_MEM
GECODE_TUPLESET_MEM
GECODE_TUPLESET_MEM
GECODE_TUPLESET_MEM
GECODE_TUPLESET_MEM
GECODE_TUPLESET_MEM
GECODE_TUPLESET_MEM
GECODE_TUPLESET_MEM
GECODE_TUPLESET_MEM
GECODE_TUPLESET_MEM
GECODE_TUPLESET_MEM
GECODE_TUPLESET_MEM
GECODE_TUPLESET_MEM
GECODE_TUPLESET_MEM
GECODE_TUPLESET_MEM
GECODE_TUPLESET_MEM
GECODE_TUPLESET_MEM
GECODE_TUPLESET_MEM
GECODE_TUPLESET_MEM
GECODE_TUPLESET_MEM
GECODE_TUPLESET_MEM
GECODE_TUPLESET_MEM
GECODE_TUPLESET_MEM
GECODE_TUPLESET_MEM
GECODE_TUPLESET_MEM
GECODE_TUPLESET_MEM
GECODE_TUPLESET_MEM
GECODE_TUPLESET_MEM
GECODE_TUPLESET_MEM
GECODE_TUPLESET_MEM
GECODE_TUPLESET_MEM
GECODE_TUPLESET_MEM
GECODE_TUPLESET_MEM
GECODE_TUPLESET_MEM
GECODE_TUPLESET_MEM
GECODE_TUPLESET_MEM
GECODE_TUPLESET_MEM
GECODE_TUPLESET_MEM
GECODE_TUPLESET_MEM
GECODE_TUPLESET_MEM
GECODE_TUPLESET_MEM
GECODE_TUPLESET_MEM
GECODE_TUPLESET_MEM
GECODE_TUPLESET_MEM
GECODE_TUPLESET_MEM
GECODE_TUPLESET_MEM
GECODE_TUPLESET_MEM
GECODE_TUPLESET_MEM
GECODE_TUPLESET_MEM
GECODE_TUPLESET_MEM
GECODE_TUPLESET_MEM
GECODE_TUPLESET_MEM
GECODE_TUPLESET_MEM
GECODE_TUPLESET_MEM
GECODE_TUPLESET_MEM
GECODE_TUPLESET_MEM
L = array1d(0..291, [1, 18, 5, 8, 1, 2, 10, 1, 13, 5, 1, 12, 13, 19, 12, 1, 4, 5, 18, 1, 19, 5, 1, 14, 1, 12, 16, 9, 3, 1, 5, 18, 5, 1, 14, 20, 8, 18, 15, 16, 15, 3, 5, 14, 20, 18, 9, 3, 12, 5, 1, 13, 1, 5, 1, 12, 1, 14, 7, 1, 5, 1, 2, 1, 1, 12, 20, 1, 14, 2, 1, 18, 18, 16, 1, 18, 2, 5, 12, 9, 5, 6, 19, 25, 14, 3, 7, 1, 12, 15, 18, 5, 19, 1, 23, 1, 18, 4, 2, 5, 5, 20, 2, 1, 19, 5, 2, 1, 12, 12, 19, 5, 13, 9, 5, 1, 20, 3, 1, 12, 4, 9, 22, 1, 20, 18, 1, 4, 5, 18, 19, 19, 13, 15, 7, 6, 18, 9, 4, 1, 25, 5, 12, 19, 5, 3, 1, 2, 1, 5, 15, 14, 3, 1, 19, 19, 9, 5, 2, 1, 18, 2, 4, 21, 4, 7, 5, 15, 14, 1, 12, 5, 3, 6, 1, 4, 1, 4, 4, 14, 1, 13, 5, 16, 9, 7, 5, 15, 14, 5, 4, 3, 1, 4, 19, 8, 1, 22, 5, 19, 19, 20, 1, 14, 12, 5, 25, 2, 1, 8, 19, 3, 15, 7, 5, 14, 20, 3, 1, 4, 19, 5, 18, 1, 6, 1, 7, 2, 1, 2, 5, 1, 3, 5, 4, 4, 1, 20, 1, 1, 4, 1, 1, 12, 1, 1, 14, 20, 8, 18, 15, 16, 15, 13, 15, 18, 16, 8, 9, 3, 19, 7, 20, 22, 9, 5, 23, 26, 1, 14, 5, 20, 18, 1, 3, 9, 8, 1, 8, 5, 12, 19, 1, 15, 23, 5, 4, 8, 15, 19, 5, 4]);
----------

%%  runtime:       1.190 (1190.830 ms)
%%  solvetime:     0.177 (177.424 ms)
%%  solutions:     1
%%  variables:     25537
%%  propagators:   34223
%%  propagations:  322959
%%  nodes:         157
%%  failures:      16
%%  restarts:      0
%%  peak depth:    131

GECODE_TUPLESET_SPEED
GECODE_TUPLESET_SPEED
GECODE_TUPLESET_SPEED
GECODE_TUPLESET_SPEED
GECODE_TUPLESET_SPEED
GECODE_TUPLESET_SPEED
GECODE_TUPLESET_SPEED
GECODE_TUPLESET_SPEED
GECODE_TUPLESET_SPEED
GECODE_TUPLESET_SPEED
GECODE_TUPLESET_SPEED
GECODE_TUPLESET_SPEED
GECODE_TUPLESET_SPEED
GECODE_TUPLESET_SPEED
GECODE_TUPLESET_SPEED
GECODE_TUPLESET_SPEED
GECODE_TUPLESET_SPEED
GECODE_TUPLESET_SPEED
GECODE_TUPLESET_SPEED
GECODE_TUPLESET_SPEED
GECODE_TUPLESET_SPEED
GECODE_TUPLESET_SPEED
GECODE_TUPLESET_SPEED
GECODE_TUPLESET_SPEED
GECODE_TUPLESET_SPEED
GECODE_TUPLESET_SPEED
GECODE_TUPLESET_SPEED
GECODE_TUPLESET_SPEED
GECODE_TUPLESET_SPEED
GECODE_TUPLESET_SPEED
GECODE_TUPLESET_SPEED
GECODE_TUPLESET_SPEED
GECODE_TUPLESET_SPEED
GECODE_TUPLESET_SPEED
GECODE_TUPLESET_SPEED
GECODE_TUPLESET_SPEED
GECODE_TUPLESET_SPEED
GECODE_TUPLESET_SPEED
GECODE_TUPLESET_SPEED
GECODE_TUPLESET_SPEED
GECODE_TUPLESET_SPEED
GECODE_TUPLESET_SPEED
GECODE_TUPLESET_SPEED
GECODE_TUPLESET_SPEED
GECODE_TUPLESET_SPEED
GECODE_TUPLESET_SPEED
GECODE_TUPLESET_SPEED
GECODE_TUPLESET_SPEED
GECODE_TUPLESET_SPEED
GECODE_TUPLESET_SPEED
GECODE_TUPLESET_SPEED
GECODE_TUPLESET_SPEED
GECODE_TUPLESET_SPEED
GECODE_TUPLESET_SPEED
GECODE_TUPLESET_SPEED
GECODE_TUPLESET_SPEED
GECODE_TUPLESET_SPEED
GECODE_TUPLESET_SPEED
GECODE_TUPLESET_SPEED
GECODE_TUPLESET_SPEED
GECODE_TUPLESET_SPEED
GECODE_TUPLESET_SPEED
GECODE_TUPLESET_SPEED
GECODE_TUPLESET_SPEED
GECODE_TUPLESET_SPEED
GECODE_TUPLESET_SPEED
GECODE_TUPLESET_SPEED
GECODE_TUPLESET_SPEED
GECODE_TUPLESET_SPEED
GECODE_TUPLESET_SPEED
GECODE_TUPLESET_SPEED
GECODE_TUPLESET_SPEED
GECODE_TUPLESET_SPEED
GECODE_TUPLESET_SPEED
GECODE_TUPLESET_SPEED
GECODE_TUPLESET_SPEED
GECODE_TUPLESET_SPEED
GECODE_TUPLESET_SPEED
GECODE_TUPLESET_SPEED
GECODE_TUPLESET_SPEED
GECODE_TUPLESET_SPEED
GECODE_TUPLESET_SPEED
GECODE_TUPLESET_SPEED
GECODE_TUPLESET_SPEED
GECODE_TUPLESET_SPEED
GECODE_TUPLESET_SPEED
GECODE_TUPLESET_SPEED
GECODE_TUPLESET_SPEED
GECODE_TUPLESET_SPEED
GECODE_TUPLESET_SPEED
GECODE_TUPLESET_SPEED
GECODE_TUPLESET_SPEED
GECODE_TUPLESET_SPEED
GECODE_TUPLESET_SPEED
GECODE_TUPLESET_SPEED
GECODE_TUPLESET_SPEED
GECODE_TUPLESET_SPEED
GECODE_TUPLESET_SPEED
GECODE_TUPLESET_SPEED
GECODE_TUPLESET_SPEED
GECODE_TUPLESET_SPEED
GECODE_TUPLESET_SPEED
GECODE_TUPLESET_SPEED
GECODE_TUPLESET_SPEED
GECODE_TUPLESET_SPEED
GECODE_TUPLESET_SPEED
GECODE_TUPLESET_SPEED
GECODE_TUPLESET_SPEED
GECODE_TUPLESET_SPEED
GECODE_TUPLESET_SPEED
GECODE_TUPLESET_SPEED
GECODE_TUPLESET_SPEED
GECODE_TUPLESET_SPEED
GECODE_TUPLESET_SPEED
GECODE_TUPLESET_SPEED
GECODE_TUPLESET_SPEED
GECODE_TUPLESET_SPEED
GECODE_TUPLESET_SPEED
GECODE_TUPLESET_SPEED
GECODE_TUPLESET_SPEED
GECODE_TUPLESET_SPEED
GECODE_TUPLESET_SPEED
GECODE_TUPLESET_SPEED
GECODE_TUPLESET_SPEED
GECODE_TUPLESET_SPEED
GECODE_TUPLESET_SPEED
GECODE_TUPLESET_SPEED
GECODE_TUPLESET_SPEED
GECODE_TUPLESET_SPEED
GECODE_TUPLESET_SPEED
GECODE_TUPLESET_SPEED
GECODE_TUPLESET_SPEED
GECODE_TUPLESET_SPEED
GECODE_TUPLESET_SPEED
L = array1d(0..291, [1, 18, 5, 8, 1, 2, 10, 1, 13, 5, 1, 12, 13, 19, 12, 1, 4, 5, 18, 1, 19, 5, 1, 14, 1, 12, 16, 9, 3, 1, 5, 18, 5, 1, 14, 20, 8, 18, 15, 16, 15, 3, 5, 14, 20, 18, 9, 3, 12, 5, 1, 13, 1, 5, 1, 12, 1, 14, 7, 1, 5, 1, 2, 1, 1, 12, 20, 1, 14, 2, 1, 18, 18, 16, 1, 18, 2, 5, 12, 9, 5, 6, 19, 25, 14, 3, 7, 1, 12, 15, 18, 5, 19, 1, 23, 1, 18, 4, 2, 5, 5, 20, 2, 1, 19, 5, 2, 1, 12, 12, 19, 5, 13, 9, 5, 1, 20, 3, 1, 12, 4, 9, 22, 1, 20, 18, 1, 4, 5, 18, 19, 19, 13, 15, 7, 6, 18, 9, 4, 1, 25, 5, 12, 19, 5, 3, 1, 2, 1, 5, 15, 14, 3, 1, 19, 19, 9, 5, 2, 1, 18, 2, 4, 21, 4, 7, 5, 15, 14, 1, 12, 5, 3, 6, 1, 4, 1, 4, 4, 14, 1, 13, 5, 16, 9, 7, 5, 15, 14, 5, 4, 3, 1, 4, 19, 8, 1, 22, 5, 19, 19, 20, 1, 14, 12, 5, 25, 2, 1, 8, 19, 3, 15, 7, 5, 14, 20, 3, 1, 4, 19, 5, 18, 1, 6, 1, 7, 2, 1, 2, 5, 1, 3, 5, 4, 4, 1, 20, 1, 1, 4, 1, 1, 12, 1, 1, 14, 20, 8, 18, 15, 16, 15, 13, 15, 18, 16, 8, 9, 3, 19, 7, 20, 22, 9, 5, 23, 26, 1, 14, 5, 20, 18, 1, 3, 9, 8, 1, 8, 5, 12, 19, 1, 15, 23, 5, 4, 8, 15, 19, 5, 4]);
----------

%%  runtime:       1.214 (1214.524 ms)
%%  solvetime:     0.197 (197.952 ms)
%%  solutions:     1
%%  variables:     25537
%%  propagators:   34223
%%  propagations:  326142
%%  nodes:         157
%%  failures:      16
%%  restarts:      0
%%  peak depth:    131

COMPACT_TABLE
COMPACT_TABLE
COMPACT_TABLE
COMPACT_TABLE
COMPACT_TABLE
COMPACT_TABLE
COMPACT_TABLE
COMPACT_TABLE
COMPACT_TABLE
COMPACT_TABLE
COMPACT_TABLE
COMPACT_TABLE
COMPACT_TABLE
COMPACT_TABLE
COMPACT_TABLE
COMPACT_TABLE
COMPACT_TABLE
COMPACT_TABLE
COMPACT_TABLE
COMPACT_TABLE
COMPACT_TABLE
COMPACT_TABLE
COMPACT_TABLE
COMPACT_TABLE
COMPACT_TABLE
COMPACT_TABLE
COMPACT_TABLE
COMPACT_TABLE
COMPACT_TABLE
COMPACT_TABLE
COMPACT_TABLE
COMPACT_TABLE
COMPACT_TABLE
COMPACT_TABLE
COMPACT_TABLE
COMPACT_TABLE
COMPACT_TABLE
COMPACT_TABLE
COMPACT_TABLE
COMPACT_TABLE
COMPACT_TABLE
COMPACT_TABLE
COMPACT_TABLE
COMPACT_TABLE
COMPACT_TABLE
COMPACT_TABLE
COMPACT_TABLE
COMPACT_TABLE
COMPACT_TABLE
COMPACT_TABLE
COMPACT_TABLE
COMPACT_TABLE
COMPACT_TABLE
COMPACT_TABLE
COMPACT_TABLE
COMPACT_TABLE
COMPACT_TABLE
COMPACT_TABLE
COMPACT_TABLE
COMPACT_TABLE
COMPACT_TABLE
COMPACT_TABLE
COMPACT_TABLE
COMPACT_TABLE
COMPACT_TABLE
COMPACT_TABLE
COMPACT_TABLE
COMPACT_TABLE
COMPACT_TABLE
COMPACT_TABLE
COMPACT_TABLE
COMPACT_TABLE
COMPACT_TABLE
COMPACT_TABLE
COMPACT_TABLE
COMPACT_TABLE
COMPACT_TABLE
COMPACT_TABLE
COMPACT_TABLE
COMPACT_TABLE
COMPACT_TABLE
COMPACT_TABLE
COMPACT_TABLE
COMPACT_TABLE
COMPACT_TABLE
COMPACT_TABLE
COMPACT_TABLE
COMPACT_TABLE
COMPACT_TABLE
COMPACT_TABLE
COMPACT_TABLE
COMPACT_TABLE
COMPACT_TABLE
COMPACT_TABLE
COMPACT_TABLE
COMPACT_TABLE
COMPACT_TABLE
COMPACT_TABLE
COMPACT_TABLE
COMPACT_TABLE
COMPACT_TABLE
COMPACT_TABLE
COMPACT_TABLE
COMPACT_TABLE
COMPACT_TABLE
COMPACT_TABLE
COMPACT_TABLE
COMPACT_TABLE
COMPACT_TABLE
COMPACT_TABLE
COMPACT_TABLE
COMPACT_TABLE
COMPACT_TABLE
COMPACT_TABLE
COMPACT_TABLE
COMPACT_TABLE
COMPACT_TABLE
COMPACT_TABLE
COMPACT_TABLE
COMPACT_TABLE
COMPACT_TABLE
COMPACT_TABLE
COMPACT_TABLE
COMPACT_TABLE
COMPACT_TABLE
COMPACT_TABLE
COMPACT_TABLE
COMPACT_TABLE
COMPACT_TABLE
COMPACT_TABLE
COMPACT_TABLE
COMPACT_TABLE
COMPACT_TABLE
COMPACT_TABLE
L = array1d(0..291, [1, 18, 5, 8, 1, 2, 10, 1, 13, 5, 1, 12, 13, 19, 12, 1, 4, 5, 18, 1, 19, 5, 1, 14, 1, 12, 16, 9, 3, 1, 5, 18, 5, 1, 14, 20, 8, 18, 15, 16, 15, 3, 5, 14, 20, 18, 9, 3, 12, 5, 1, 13, 1, 5, 1, 12, 1, 14, 7, 1, 5, 1, 2, 1, 1, 12, 20, 1, 14, 2, 1, 18, 18, 16, 1, 18, 2, 5, 12, 9, 5, 6, 19, 25, 14, 3, 7, 1, 12, 15, 18, 5, 19, 1, 23, 1, 18, 4, 2, 5, 5, 20, 2, 1, 19, 5, 2, 1, 12, 12, 19, 5, 13, 9, 5, 1, 20, 3, 1, 12, 4, 9, 22, 1, 20, 18, 1, 4, 5, 18, 19, 19, 13, 15, 7, 6, 18, 9, 4, 1, 25, 5, 12, 19, 5, 3, 1, 2, 1, 5, 15, 14, 3, 1, 19, 19, 9, 5, 2, 1, 18, 2, 4, 21, 4, 7, 5, 15, 14, 1, 12, 5, 3, 6, 1, 4, 1, 4, 4, 14, 1, 13, 5, 16, 9, 7, 5, 15, 14, 5, 4, 3, 1, 4, 19, 8, 1, 22, 5, 19, 19, 20, 1, 14, 12, 5, 25, 2, 1, 8, 19, 3, 15, 7, 5, 14, 20, 3, 1, 4, 19, 5, 18, 1, 6, 1, 7, 2, 1, 2, 5, 1, 3, 5, 4, 4, 1, 20, 1, 1, 4, 1, 1, 12, 1, 1, 14, 20, 8, 18, 15, 16, 15, 13, 15, 18, 16, 8, 9, 3, 19, 7, 20, 22, 9, 5, 23, 26, 1, 14, 5, 20, 18, 1, 3, 9, 8, 1, 8, 5, 12, 19, 1, 15, 23, 5, 4, 8, 15, 19, 5, 4]);
----------

%%  runtime:       1.464 (1464.740 ms)
%%  solvetime:     0.130 (130.166 ms)
%%  solutions:     1
%%  variables:     25537
%%  propagators:   34223
%%  propagations:  322408
%%  nodes:         157
%%  failures:      16
%%  restarts:      0
%%  peak depth:    131

